% Generado automaticamente desde C:/Users/andres/Desktop/SEPTIMO SEMESTRE/ADAII/proyecto_final/Proyecto-Optimizacion-ADA2/BateriaPruebas_2025_2_P2-txt/Prueba1.txt

n = 10;
m = 3;
ct = 25.0;
maxMovs = 5.0;
v = [0.345, 0.394, 0.5];
p = [1, 8, 1];
s = [| 0, 1, 0 | 3, 3, 2 | 0, 1, 0 |];
